data;


param d:= 100;
param r:=5;
param p:=0.740000;
param M:=1000;
param U:=
         1         1        1.643561e+00
         2         1       -8.226985e-02
         3         1       -2.076228e+00
         4         1        9.570835e-02
         5         1       -1.585802e+00
         6         1       -1.914968e+00
         7         1        1.356616e+00
         8         1       -1.528402e+00
         9         1        1.472516e+00
        10         1       -6.812242e-03
        11         1        1.011481e+00
        12         1        9.381391e-02
        13         1        2.183418e-01
        14         1       -1.572853e+00
        15         1        1.115381e-01
        16         1       -1.284492e-01
        17         1        3.187630e-01
        18         1       -1.239314e+00
        19         1       -7.342120e-02
        20         1        3.189121e-01
        21         1        4.626379e-01
        22         1        7.715064e-01
        23         1        8.838223e-01
        24         1       -1.503491e-01
        25         1        8.045142e-01
        26         1        9.030722e-01
        27         1       -8.021971e-01
        28         1        5.048394e-01
        29         1       -3.257482e-01
        30         1        7.596809e-01
        31         1       -1.535167e+00
        32         1       -9.254429e-01
        33         1        6.105138e-01
        34         1       -6.006660e-01
        35         1       -7.050624e-01
        36         1        6.147575e-02
        37         1       -9.359211e-01
        38         1        1.365078e+00
        39         1       -6.613296e-01
        40         1       -1.381600e+00
        41         1       -3.855688e-01
        42         1        9.664948e-01
        43         1        1.368719e+00
        44         1        1.117040e+00
        45         1       -1.421480e+00
        46         1       -1.713226e+00
        47         1       -7.267882e-01
        48         1        1.358086e-01
        49         1       -8.373952e-01
        50         1        3.488393e-01
        51         1        1.230285e+00
        52         1        4.358125e-01
        53         1       -1.241734e+00
        54         1       -5.076872e-01
        55         1        5.296959e-01
        56         1        6.080009e-01
        57         1       -1.078285e+00
        58         1        2.967895e-01
        59         1        1.043307e-01
        60         1       -6.459132e-03
        61         1        3.122623e-01
        62         1        1.027408e+00
        63         1        7.280290e-02
        64         1       -1.441640e+00
        65         1        1.113621e-01
        66         1       -1.328881e+00
        67         1        2.683796e+00
        68         1       -6.516840e-01
        69         1        8.364063e-01
        70         1        1.790521e+00
        71         1        1.507908e+00
        72         1       -1.749572e+00
        73         1       -1.510788e+00
        74         1       -7.544421e-01
        75         1        8.847914e-01
        76         1        1.927663e+00
        77         1       -7.768554e-01
        78         1        1.662630e+00
        79         1       -1.693322e-01
        80         1       -3.441414e-01
        81         1        9.287944e-01
        82         1        7.574097e-01
        83         1       -5.182908e-01
        84         1       -2.154742e-01
        85         1       -3.493169e-01
        86         1        7.153193e-02
        87         1        3.507694e-01
        88         1        2.150933e-01
        89         1       -7.822493e-01
        90         1        6.729175e-01
        91         1       -6.467326e-01
        92         1       -5.354475e-01
        93         1       -6.565753e-01
        94         1       -3.005757e-01
        95         1        5.068111e-01
        96         1        1.178070e+00
        97         1        1.455777e-01
        98         1       -2.066473e-01
        99         1       -1.728347e+00
       100         1        2.630788e-01
         1         2        2.157130e-01
         2         2        9.126134e-01
         3         2        2.930464e-01
         4         2       -9.090620e-01
         5         2       -1.043330e+00
         6         2       -7.757594e-01
         7         2        2.215038e+00
         8         2        3.389683e-01
         9         2       -1.488462e+00
        10         2        5.340389e-01
        11         2       -1.166302e+00
        12         2        4.468358e-01
        13         2       -4.961054e-01
        14         2        1.028611e-01
        15         2       -2.265481e-01
        16         2       -2.123824e+00
        17         2       -1.408615e-01
        18         2        1.304719e-01
        19         2        5.903161e-01
        20         2        9.697200e-01
        21         2       -1.274833e+00
        22         2       -3.465754e-01
        23         2        3.559873e-01
        24         2        1.123937e+00
        25         2        8.779831e-02
        26         2       -3.384908e-01
        27         2       -7.938405e-01
        28         2       -2.165702e-01
        29         2       -1.267903e-01
        30         2       -1.455383e+00
        31         2       -7.602651e-01
        32         2        9.915985e-01
        33         2       -2.013580e+00
        34         2       -8.808691e-01
        35         2        9.848472e-02
        36         2       -3.875827e-01
        37         2       -9.149846e-01
        38         2        1.284411e-01
        39         2       -7.083876e-01
        40         2        1.184888e+00
        41         2       -3.338364e-01
        42         2        4.520522e-01
        43         2       -6.667279e-01
        44         2       -1.894218e+00
        45         2        2.110901e-01
        46         2       -5.986394e-01
        47         2        1.522138e-01
        48         2       -2.067843e+00
        49         2        1.540077e-01
        50         2       -2.666980e-01
        51         2        6.393372e-01
        52         2       -5.845235e-01
        53         2       -1.258703e+00
        54         2       -8.457483e-02
        55         2       -9.773794e-01
        56         2       -2.917695e-02
        57         2        2.179345e-01
        58         2        1.781851e+00
        59         2        4.832072e-02
        60         2       -3.227627e-01
        61         2        7.118849e-01
        62         2        4.835648e-01
        63         2        5.617161e-01
        64         2        3.322758e-01
        65         2       -3.052435e-01
        66         2       -3.036726e+00
        67         2        2.662575e+00
        68         2       -5.652598e-02
        69         2       -7.626565e-01
        70         2        4.973143e-01
        71         2        1.596259e+00
        72         2        1.280928e+00
        73         2        1.810529e+00
        74         2       -8.226649e-01
        75         2       -9.183110e-01
        76         2        1.009783e-01
        77         2        5.928968e-01
        78         2        6.841680e-01
        79         2       -1.280226e+00
        80         2       -3.845995e-01
        81         2       -1.953992e+00
        82         2        1.144592e+00
        83         2        2.312485e-01
        84         2       -2.869832e-01
        85         2       -1.978871e+00
        86         2       -2.058612e+00
        87         2        8.697937e-01
        88         2        4.233140e-01
        89         2        8.750185e-01
        90         2        3.843533e-01
        91         2        5.400129e-01
        92         2        5.711533e-01
        93         2       -3.563575e-01
        94         2       -2.209256e+00
        95         2        6.157760e-01
        96         2       -1.046161e-01
        97         2       -2.132156e-01
        98         2       -9.702698e-01
        99         2       -1.046807e+00
       100         2       -4.806050e-01
         1         3       -8.545630e-01
         2         3        4.570345e-01
         3         3        2.140254e-01
         4         3       -3.039752e-01
         5         3        1.833497e+00
         6         3        1.034558e+00
         7         3        6.913956e-01
         8         3        9.388039e-01
         9         3       -4.581123e-01
        10         3       -5.050901e-01
        11         3       -1.429844e+00
        12         3       -2.778193e-01
        13         3       -1.363467e+00
        14         3       -3.354299e-01
        15         3       -1.153587e+00
        16         3        9.299161e-01
        17         3        3.002916e-01
        18         3       -1.712263e-01
        19         3       -1.831954e-01
        20         3        1.389738e+00
        21         3       -8.823910e-01
        22         3        9.633275e-01
        23         3       -5.073588e-01
        24         3        2.208721e-01
        25         3       -7.820092e-01
        26         3        1.576215e+00
        27         3        1.475219e+00
        28         3       -1.023782e-01
        29         3        1.561883e-01
        30         3       -1.526968e-01
        31         3       -1.044288e+00
        32         3        5.046744e-01
        33         3        2.609502e-03
        34         3        1.591710e+00
        35         3        4.815972e-01
        36         3        1.486030e+00
        37         3       -9.687588e-01
        38         3       -5.544762e-01
        39         3       -3.252849e-01
        40         3       -5.138411e-01
        41         3        1.594123e+00
        42         3       -4.370715e-01
        43         3       -5.255183e-01
        44         3        1.065975e-01
        45         3        2.010441e+00
        46         3        2.932859e-01
        47         3       -5.306042e-01
        48         3        7.029819e-01
        49         3       -2.483374e-01
        50         3        1.029143e-01
        51         3        1.462639e+00
        52         3       -1.387066e-01
        53         3        1.009625e+00
        54         3        6.085753e-01
        55         3       -1.726182e-01
        56         3       -2.003848e-02
        57         3       -1.594280e+00
        58         3       -1.165834e+00
        59         3        6.292748e-01
        60         3        2.423501e-01
        61         3       -5.204800e-01
        62         3       -1.186179e-01
        63         3        1.347415e+00
        64         3        2.153783e+00
        65         3        2.841376e+00
        66         3       -9.403950e-01
        67         3        3.563790e-01
        68         3       -4.014772e-01
        69         3        4.178066e-01
        70         3       -3.536278e-01
        71         3        9.455954e-01
        72         3       -1.048709e+00
        73         3        1.181395e-01
        74         3       -1.472187e-01
        75         3        1.055168e+00
        76         3       -1.764922e-01
        77         3       -1.174608e+00
        78         3       -7.142275e-01
        79         3       -9.202924e-01
        80         3        6.921737e-01
        81         3       -1.084520e+00
        82         3        9.725421e-01
        83         3       -1.907310e+00
        84         3       -2.029738e+00
        85         3       -1.548480e+00
        86         3        4.920181e-01
        87         3       -2.197473e+00
        88         3       -9.056630e-01
        89         3       -1.915264e+00
        90         3        1.090203e+00
        91         3        4.837016e-01
        92         3        2.416350e+00
        93         3        6.767446e-01
        94         3        1.718136e+00
        95         3       -1.685903e+00
        96         3       -3.297569e-01
        97         3       -4.689735e-01
        98         3        9.587164e-01
        99         3        6.298300e-02
       100         3       -1.953180e+00
         1         4       -7.224842e-01
         2         4       -1.029233e+00
         3         4        1.003955e+00
         4         4        7.215709e-01
         5         4       -1.029770e+00
         6         4       -3.598944e-01
         7         4        3.990474e-01
         8         4        8.397588e-01
         9         4       -4.557965e-01
        10         4        1.146625e+00
        11         4       -1.982158e+00
        12         4        5.048570e-01
        13         4       -1.554567e+00
        14         4       -1.704764e-01
        15         4        7.885307e-01
        16         4        4.382449e-01
        17         4       -1.129889e+00
        18         4        9.701227e-01
        19         4        4.093192e-01
        20         4       -4.689902e-01
        21         4       -3.438669e-01
        22         4        2.870133e+00
        23         4        1.232394e+00
        24         4        3.026999e-02
        25         4        6.062302e-01
        26         4        5.521875e-01
        27         4       -1.297186e+00
        28         4        1.162724e+00
        29         4        3.184291e-02
        30         4        6.791874e-01
        31         4       -2.286888e+00
        32         4        9.160675e-01
        33         4        5.826361e-01
        34         4        1.636224e-01
        35         4       -1.536947e+00
        36         4       -7.181464e-01
        37         4       -3.356801e-01
        38         4       -5.140996e-01
        39         4       -1.354577e-01
        40         4        2.477913e-01
        41         4       -1.163717e+00
        42         4       -1.710569e+00
        43         4        7.849025e-01
        44         4       -1.398587e+00
        45         4       -8.202304e-02
        46         4        2.707695e-01
        47         4        1.131162e+00
        48         4       -6.604345e-01
        49         4       -9.010601e-01
        50         4       -1.691783e+00
        51         4       -2.238765e+00
        52         4       -6.758079e-01
        53         4       -2.512241e-01
        54         4        2.501573e-01
        55         4       -1.771896e-01
        56         4        2.050439e+00
        57         4       -6.857172e-01
        58         4       -1.481662e+00
        59         4        1.249996e+00
        60         4       -9.188006e-01
        61         4        9.279418e-01
        62         4       -1.241099e+00
        63         4       -6.095223e-01
        64         4       -2.240144e-01
        65         4        5.688370e-01
        66         4        1.213878e+00
        67         4        1.568829e+00
        68         4        4.846848e-02
        69         4        2.065864e+00
        70         4       -5.809857e-01
        71         4        9.366940e-01
        72         4       -6.501517e-01
        73         4        4.383655e-01
        74         4        8.510407e-02
        75         4        7.141768e-01
        76         4       -4.543684e-02
        77         4       -4.365765e-01
        78         4        6.636446e-01
        79         4        4.366018e-01
        80         4       -1.752822e-01
        81         4        1.168227e+00
        82         4        1.981879e-01
        83         4        7.935603e-01
        84         4       -1.677996e+00
        85         4       -2.396674e+00
        86         4       -2.951257e+00
        87         4       -1.140874e+00
        88         4        1.084685e-01
        89         4        8.071608e-01
        90         4       -6.592296e-01
        91         4       -1.028365e+00
        92         4       -1.164941e+00
        93         4        5.830923e-01
        94         4       -8.962695e-01
        95         4        3.917271e-01
        96         4       -3.754885e-01
        97         4       -7.557893e-02
        98         4       -2.441446e-01
        99         4       -7.331989e-01
       100         4        4.819069e-01
         1         5       -1.079969e+00
         2         5        1.071376e+00
         3         5       -1.266027e+00
         4         5       -2.875938e-01
         5         5        3.326963e-01
         6         5        1.253038e+00
         7         5       -3.665513e-01
         8         5       -1.037451e+00
         9         5       -2.162768e-02
        10         5       -8.067699e-01
        11         5        3.469518e-01
        12         5        1.862911e+00
        13         5       -5.190365e-01
        14         5        1.171933e-02
        15         5       -1.339000e+00
        16         5        1.415933e-01
        17         5       -1.083885e+00
        18         5        9.885111e-02
        19         5        9.981342e-02
        20         5       -7.691988e-01
        21         5       -8.456853e-01
        22         5        1.505034e+00
        23         5       -5.533146e-01
        24         5        1.945277e-01
        25         5        3.029174e-01
        26         5       -1.683441e+00
        27         5       -1.398856e+00
        28         5        1.184249e+00
        29         5       -2.836055e-01
        30         5       -3.691257e-01
        31         5       -8.561151e-02
        32         5        2.142672e+00
        33         5       -1.264211e+00
        34         5        2.575715e-01
        35         5       -1.990683e-01
        36         5        1.971714e-01
        37         5       -1.829075e+00
        38         5       -3.309598e-01
        39         5        8.032420e-01
        40         5       -1.563335e+00
        41         5       -6.584140e-01
        42         5       -3.918753e-01
        43         5        1.303350e+00
        44         5        5.869853e-01
        45         5        4.746671e-01
        46         5        1.735442e-01
        47         5       -2.200385e+00
        48         5        1.178716e+00
        49         5       -8.993301e-01
        50         5        1.931303e-01
        51         5        1.465228e+00
        52         5        8.972511e-01
        53         5        1.458523e+00
        54         5        1.348184e+00
        55         5        1.265649e+00
        56         5       -1.402184e+00
        57         5        6.683742e-01
        58         5        1.315525e+00
        59         5       -1.064024e-01
        60         5       -2.744952e-01
        61         5       -1.979790e-01
        62         5       -1.400964e+00
        63         5        1.470080e+00
        64         5        1.902594e-01
        65         5        3.824445e-01
        66         5       -9.879354e-01
        67         5        5.387124e-02
        68         5        9.551627e-01
        69         5        4.168875e-01
        70         5       -1.195134e+00
        71         5       -1.047648e+00
        72         5        1.330630e+00
        73         5       -4.330032e-01
        74         5        5.790168e-01
        75         5       -5.312348e-01
        76         5       -5.408724e-01
        77         5        8.988952e-01
        78         5        4.042498e-01
        79         5       -1.692946e-01
        80         5        3.489226e-01
        81         5        8.824192e-01
        82         5       -6.033177e-01
        83         5       -4.656674e-01
        84         5       -1.287474e+00
        85         5        4.704564e-01
        86         5       -1.234630e+00
        87         5        1.131126e-01
        88         5        2.779982e+00
        89         5       -1.813112e+00
        90         5        4.618439e-01
        91         5        9.704525e-01
        92         5       -1.081433e+00
        93         5       -1.348850e-01
        94         5       -4.721431e-01
        95         5       -4.009468e-01
        96         5       -1.212202e-01
        97         5        4.192596e-01
        98         5        1.037437e+00
        99         5       -3.718389e-01
       100         5       -6.315877e-01
;

param theta:=
    1       -1.007110e+00
    2        5.761091e-02
    3       -2.717948e+00
    4       -2.116140e-01
    5       -1.298944e+00
;
param X_true:=
    1        2.236977e+00
    2       -2.280736e+00
    3        2.956774e+00
    4        8.958521e-01
    5       -3.661247e+00
    6       -2.479945e+00
    7       -2.725867e+00
    8        1.770437e-01
    9       -1.993524e-01
   10        2.214425e+00
   11        2.769072e+00
   12       -1.838778e+00
   13        4.460533e+00
   14        2.521797e+00
   15        4.582671e+00
   16       -2.796353e+00
   17        5.017051e-01
   18        1.387497e+00
   19        3.893559e-01
   20       -2.943738e+00
   21        3.030404e+00
   22       -5.977058e+00
   23        9.668164e-01
   24       -6.438281e-01
   25        7.991596e-01
   26       -3.142182e+00
   27       -1.155825e+00
   28       -2.027533e+00
   29        2.561398e-01
   30       -9.802767e-02
   31        4.934908e+00
   32       -3.361121e+00
   33        7.812204e-01
   34       -4.142038e+00
   35       -8.374725e-03
   36       -4.226861e+00
   37        5.970364e+00
   38        6.789794e-01
   39        4.955937e-01
   40        4.834647e+00
   41       -2.861880e+00
   42        1.110904e+00
   43       -1.847833e+00
   44       -1.991540e+00
   45       -4.621049e+00
   46        6.128986e-01
   47        4.802670e+00
   48       -3.558298e+00
   49        2.887056e+00
   50       -5.390199e-01
   51       -6.607669e+00
   52       -1.117094e+00
   53       -3.408562e+00
   54       -2.950854e+00
   55       -1.728100e+00
   56        8.295415e-01
   57        4.709282e+00
   58        1.577910e+00
   59       -1.937861e+00
   60       -1.205168e-01
   61        1.203615e+00
   62        1.398458e+00
   63       -5.483005e+00
   64       -4.582140e+00
   65       -8.469345e+00
   66        4.742625e+00
   67       -3.918865e+00
   68        4.924174e-01
   69       -2.999328e+00
   70        8.616290e-01
   71       -2.833969e+00
   72        3.094563e+00
   73        1.775749e+00
   74        3.420418e-01
   75       -3.273918e+00
   76       -7.433137e-01
   77        2.935398e+00
   78       -3.590187e-01
   79        2.724725e+00
   80       -1.972617e+00
   81        5.046604e-01
   82       -2.597994e+00
   83        6.157624e+00
   84        7.745583e+00
   85        4.343637e+00
   86        6.978715e-01
   87        5.765134e+00
   88       -1.364609e+00
   89        8.228498e+00
   90       -4.078406e+00
   91       -1.674363e+00
   92       -4.343740e+00
   93       -1.148075e+00
   94       -3.692277e+00
   95        4.544733e+00
   96       -5.966732e-02
   97        5.862618e-01
   98       -3.750807e+00
   99        2.148056e+00
  100        5.733179e+00
;
param X:=
    1        2.236977e+00
    2       -2.839631e+00
    3       -2.365599e-02
    4       -8.828194e-01
    5       -7.111491e-01
    6       -5.053092e-02
    7       -8.852364e-01
    8       -8.549702e-01
    9       -1.993524e-01
   10        1.891310e-01
   11        2.649988e-01
   12        1.097678e+00
   13        1.426738e+00
   14        8.768302e-01
   15        9.542880e-01
   16       -1.517263e+00
   17        5.017051e-01
   18       -4.402374e-01
   19       -6.551113e-01
   20        1.673864e+00
   21        3.030404e+00
   22        3.816590e-01
   23        9.668164e-01
   24        5.124130e-01
   25        1.955591e-01
   26       -6.533236e-01
   27        4.226393e-01
   28        1.803178e+00
   29        5.863350e-01
   30        4.667521e-01
   31        4.934908e+00
   32        9.064728e-01
   33        7.812204e-01
   34        1.653638e-01
   35        1.095905e+00
   36        2.809780e-01
   37       -3.592182e-02
   38       -5.640352e-01
   39        4.955937e-01
   40        4.834647e+00
   41       -1.766322e+00
   42        3.096910e-01
   43       -1.847833e+00
   44        4.688518e-01
   45       -4.621049e+00
   46        3.425772e-01
   47        4.802670e+00
   48       -2.465913e-01
   49       -9.359823e-01
   50       -5.390199e-01
   51       -6.607669e+00
   52       -1.117094e+00
   53       -3.408562e+00
   54        7.334798e-01
   55        2.790549e+00
   56       -4.972186e-02
   57       -5.546215e-01
   58       -7.750798e-01
   59        1.282592e-01
   60       -1.205168e-01
   61        1.203615e+00
   62       -1.239492e-01
   63       -1.765919e+00
   64        4.322592e-01
   65       -8.469345e+00
   66        8.431975e-01
   67        7.423823e-01
   68        4.924174e-01
   69        7.584207e-01
   70        8.616290e-01
   71        9.931590e-01
   72        3.094563e+00
   73        6.255713e-01
   74        3.420418e-01
   75       -9.363091e-01
   76       -3.992153e-01
   77       -5.958887e-01
   78        6.875701e-01
   79        9.162532e-01
   80        7.332808e-01
   81        5.766376e-01
   82       -1.370658e+00
   83       -4.349104e-01
   84       -5.940488e-01
   85        4.343637e+00
   86       -1.537503e-01
   87        3.821360e-01
   88        1.027288e+00
   89        6.080807e-01
   90       -3.950303e-01
   91       -1.198062e-01
   92        1.077782e+00
   93       -1.148075e+00
   94       -3.692277e+00
   95        5.908335e-01
   96       -3.165195e-02
   97        1.395329e+00
   98       -2.731228e-02
   99       -2.615213e-02
  100        1.584690e+00
;
param outliervec:=
    1    0
    2    1
    3    1
    4    1
    5    1
    6    1
    7    1
    8    1
    9    0
   10    1
   11    1
   12    1
   13    1
   14    1
   15    1
   16    1
   17    0
   18    1
   19    1
   20    1
   21    0
   22    1
   23    0
   24    1
   25    1
   26    1
   27    1
   28    1
   29    1
   30    1
   31    0
   32    1
   33    0
   34    1
   35    1
   36    1
   37    1
   38    1
   39    0
   40    0
   41    1
   42    1
   43    0
   44    1
   45    0
   46    1
   47    0
   48    1
   49    1
   50    0
   51    0
   52    0
   53    0
   54    1
   55    1
   56    1
   57    1
   58    1
   59    1
   60    0
   61    0
   62    1
   63    1
   64    1
   65    0
   66    1
   67    1
   68    0
   69    1
   70    0
   71    1
   72    0
   73    1
   74    0
   75    1
   76    1
   77    1
   78    1
   79    1
   80    1
   81    1
   82    1
   83    1
   84    1
   85    0
   86    1
   87    1
   88    1
   89    1
   90    1
   91    1
   92    1
   93    0
   94    0
   95    1
   96    1
   97    1
   98    1
   99    1
  100    1
;